20
70.0
0 19 39.0 1.0
1 18 2.0 38.0
2 17 37.0 3.0
3 16 4.0 36.0
4 15 35.0 5.0
5 14 6.0 34.0
6 13 33.0 7.0
7 12 8.0 32.0
8 11 31.0 9.0
9 10 10.0 30.0
10 9 29.0 11.0
11 8 12.0 28.0
12 7 27.0 13.0
13 6 14.0 26.0
14 5 25.0 15.0
15 4 16.0 24.0
16 3 23.0 17.0
17 2 18.0 22.0
18 1 21.0 19.0
